
Gurobi 9.5.1 (linux64) logging started Fri Apr  8 17:08:30 2022

Set parameter LogFile to value "../results/logs/log_web-baidu-baike.e_3_250.log"
Gurobi Optimizer version 9.5.1 build v9.5.1rc2 (linux64)
Thread count: 8 physical cores, 8 logical processors, using up to 8 threads
Optimize a model with 4280397 rows, 4280396 columns and 76620576 nonzeros
Model fingerprint: 0xc5c67cb2
Coefficient statistics:
  Matrix range     [1e+00, 3e+00]
  Objective range  [1e+00, 1e+00]
  Bounds range     [1e+00, 1e+00]
  RHS range        [1e+00, 2e+02]

Concurrent LP optimizer: primal simplex, dual simplex, and barrier
Showing barrier log only...

